decision_x5=[0,4];
decision_x6=[0,4];
decision_x7=[0,4];
decision_x8=[0,4];
decision_x9=[0,4];
decision_x10=[0,4];
decision_x11=[0,4];
decision_x12=[0,4];
decision_x1=[0,4];
decision_x2=[0,4];
decision_x3=[0,4];
decision_x4=[0,4];
random_y1=[0,4];
random_y2=[0,4];
random_y3=[0,4];
random_y4=[0,4];
random_y5=[0,4];
random_y6=[0,4];
constraint_x2_x1=[
0,1,4|
0,2,4.1|
0,3,5.3|
0,4,9.4|
1,0,0.051|
1,2,4.5|
1,3,1|
1,4,6.9|
2,0,9.4|
2,1,0.65|
2,3,5.2|
2,4,1.9|
3,0,4.2|
3,1,7.5|
3,2,2.7|
3,4,0.81|
4,0,9.2|
4,1,6.1|
4,2,0.24|
4,3,3.8|
];
constraint_x3_x2=[
0,1,8|
0,2,5.9|
0,3,4.5|
0,4,9.1|
1,0,2.2|
1,2,10|
1,3,2.1|
1,4,5.2|
2,0,5.7|
2,1,0.71|
2,3,1.9|
2,4,7.9|
3,0,4.6|
3,1,6.5|
3,2,4.7|
3,4,9.2|
4,0,0.41|
4,1,5.7|
4,2,9.3|
4,3,4.6|
];
constraint_x4_x1=[
0,1,1.2|
0,2,4.1|
0,3,5.6|
0,4,3|
1,0,5.5|
1,2,9.3|
1,3,4|
1,4,3.6|
2,0,8.6|
2,1,7.4|
2,3,3.2|
2,4,9.5|
3,0,0.15|
3,1,6.2|
3,2,0.56|
3,4,3.2|
4,0,0.26|
4,1,7.2|
4,2,3.7|
4,3,0.19|
];
constraint_x4_x2=[
0,1,3.8|
0,2,10|
0,3,0.92|
0,4,4|
1,0,9.8|
1,2,5.9|
1,3,8.2|
1,4,4.9|
2,0,7.5|
2,1,6.5|
2,3,9.1|
2,4,5.4|
3,0,2.2|
3,1,0.45|
3,2,3.6|
3,4,7|
4,0,3|
4,1,3.7|
4,2,5.7|
4,3,2.2|
];
constraint_x5_x1=[
0,1,3.5|
0,2,5.5|
0,3,3.7|
0,4,6.1|
1,0,3.1|
1,2,1.5|
1,3,6.8|
1,4,5.4|
2,0,8|
2,1,7.5|
2,3,7.5|
2,4,5.9|
3,0,1.3|
3,1,9.2|
3,2,8.7|
3,4,6.9|
4,0,5.6|
4,1,7.2|
4,2,9.6|
4,3,6.4|
];
constraint_x5_x3=[
0,1,5.3|
0,2,8.3|
0,3,9.8|
0,4,1.5|
1,0,8.5|
1,2,5.2|
1,3,4|
1,4,7.2|
2,0,2|
2,1,7.2|
2,3,8.1|
2,4,5.2|
3,0,2|
3,1,9.2|
3,2,5.6|
3,4,7.5|
4,0,4.8|
4,1,5|
4,2,3.8|
4,3,7.2|
];
constraint_x5_x4=[
0,1,0.85|
0,2,7.3|
0,3,0.77|
0,4,0.34|
1,0,9.4|
1,2,0.75|
1,3,9|
1,4,4.3|
2,0,3.5|
2,1,4.4|
2,3,9.6|
2,4,8.6|
3,0,5.2|
3,1,2.8|
3,2,0.1|
3,4,1.6|
4,0,2.7|
4,1,3|
4,2,5.4|
4,3,5.6|
];
constraint_x6_x1=[
0,1,4.3|
0,2,0.9|
0,3,6.3|
0,4,9.3|
1,0,1.7|
1,2,7|
1,3,5.9|
1,4,1.2|
2,0,7.9|
2,1,1.1|
2,3,4.1|
2,4,4.9|
3,0,1.4|
3,1,7.5|
3,2,4.3|
3,4,0.35|
4,0,8.8|
4,1,0.11|
4,2,6.7|
4,3,7|
];
constraint_x6_x2=[
0,1,5.1|
0,2,6|
0,3,9.6|
0,4,1.7|
1,0,9.4|
1,2,8.1|
1,3,5.3|
1,4,4.4|
2,0,8.8|
2,1,5.8|
2,3,8.3|
2,4,9|
3,0,0.35|
3,1,7.9|
3,2,2.9|
3,4,5.9|
4,0,2|
4,1,7.2|
4,2,9.7|
4,3,1.6|
];
constraint_x6_x5=[
0,1,1.9|
0,2,8.4|
0,3,8.3|
0,4,4.2|
1,0,6.6|
1,2,0.96|
1,3,0.48|
1,4,2.8|
2,0,8.9|
2,1,9.6|
2,3,8.2|
2,4,2.2|
3,0,4.5|
3,1,1.3|
3,2,0.68|
3,4,1.8|
4,0,0.74|
4,1,8.4|
4,2,4.1|
4,3,7.7|
];
constraint_x7_x3=[
0,1,0.044|
0,2,4.8|
0,3,0.2|
0,4,6.3|
1,0,9.7|
1,2,5.5|
1,3,8.4|
1,4,5|
2,0,2.3|
2,1,3.2|
2,3,8.7|
2,4,2.8|
3,0,2.6|
3,1,4.3|
3,2,0.071|
3,4,3.1|
4,0,8.4|
4,1,3|
4,2,9.1|
4,3,1.3|
];
constraint_x8_x1=[
0,1,9.9|
0,2,5.1|
0,3,4.7|
0,4,0.88|
1,0,6.7|
1,2,8.6|
1,3,4.6|
1,4,8.5|
2,0,7.1|
2,1,3.1|
2,3,2.5|
2,4,5.7|
3,0,0.74|
3,1,2.5|
3,2,2.8|
3,4,3.9|
4,0,5.7|
4,1,1.2|
4,2,0.55|
4,3,0.37|
];
constraint_x8_x2=[
0,1,3|
0,2,0.51|
0,3,3.8|
0,4,7.7|
1,0,9.9|
1,2,0.69|
1,3,1.2|
1,4,4.6|
2,0,9|
2,1,8|
2,3,1.6|
2,4,2.3|
3,0,6.4|
3,1,1.6|
3,2,8.9|
3,4,8.5|
4,0,3.5|
4,1,3.9|
4,2,5.1|
4,3,7.1|
];
constraint_x8_x3=[
0,1,2.5|
0,2,6.6|
0,3,0.59|
0,4,6.9|
1,0,7.1|
1,2,5.6|
1,3,4.6|
1,4,5.3|
2,0,4.2|
2,1,0.59|
2,3,2|
2,4,7.3|
3,0,9.6|
3,1,9.9|
3,2,8.9|
3,4,0.0085|
4,0,9.8|
4,1,8.8|
4,2,8.9|
4,3,3.8|
];
constraint_x8_x6=[
0,1,2.4|
0,2,7.8|
0,3,2.4|
0,4,0.71|
1,0,7.7|
1,2,9.8|
1,3,1.9|
1,4,2.4|
2,0,7.6|
2,1,4.1|
2,3,3.7|
2,4,9.8|
3,0,3.3|
3,1,1.3|
3,2,0.47|
3,4,0.76|
4,0,3.9|
4,1,3.4|
4,2,1.4|
4,3,6.5|
];
constraint_x9_x1=[
0,1,7.6|
0,2,8.8|
0,3,3.2|
0,4,1.8|
1,0,6.3|
1,2,2.5|
1,3,0.82|
1,4,7.2|
2,0,9.6|
2,1,7.8|
2,3,7.8|
2,4,1.6|
3,0,0.033|
3,1,0.61|
3,2,3.7|
3,4,6.2|
4,0,2.1|
4,1,1.6|
4,2,0.34|
4,3,7.7|
];
constraint_x9_x7=[
0,1,0.21|
0,2,9.3|
0,3,6.1|
0,4,8.2|
1,0,6.6|
1,2,9.3|
1,3,5.5|
1,4,7.4|
2,0,4.2|
2,1,2|
2,3,2|
2,4,2.5|
3,0,4.9|
3,1,2.7|
3,2,3|
3,4,5.2|
4,0,5.8|
4,1,1.3|
4,2,9.7|
4,3,4.8|
];
constraint_x9_x8=[
0,1,0.93|
0,2,6|
0,3,1.2|
0,4,7.9|
1,0,7|
1,2,8.7|
1,3,3.6|
1,4,7.6|
2,0,5.8|
2,1,4.3|
2,3,5.5|
2,4,8|
3,0,9.6|
3,1,5.8|
3,2,0.094|
3,4,0.45|
4,0,8.3|
4,1,8.5|
4,2,9.6|
4,3,3.1|
];
constraint_x10_x3=[
0,1,1.5|
0,2,2.5|
0,3,8.9|
0,4,4.3|
1,0,4.4|
1,2,4.7|
1,3,4.9|
1,4,7.6|
2,0,7.1|
2,1,3.2|
2,3,7.4|
2,4,7.4|
3,0,4.6|
3,1,3|
3,2,9.7|
3,4,0.81|
4,0,3.2|
4,1,1.5|
4,2,2.3|
4,3,2.5|
];
constraint_x10_x4=[
0,1,7.7|
0,2,0.33|
0,3,8.8|
0,4,3.9|
1,0,4|
1,2,4.5|
1,3,0.47|
1,4,4.2|
2,0,6.6|
2,1,7|
2,3,5|
2,4,3.4|
3,0,1.6|
3,1,8.7|
3,2,1.8|
3,4,6.6|
4,0,7.3|
4,1,8.2|
4,2,7.4|
4,3,6.6|
];
constraint_x10_x5=[
0,1,3.7|
0,2,8|
0,3,5.7|
0,4,5.9|
1,0,9.6|
1,2,7.7|
1,3,4.3|
1,4,4|
2,0,7.1|
2,1,5.3|
2,3,4.2|
2,4,5.6|
3,0,3.8|
3,1,2.4|
3,2,6.4|
3,4,9.4|
4,0,3.8|
4,1,3.5|
4,2,5.6|
4,3,4.5|
];
constraint_x10_x7=[
0,1,2.4|
0,2,4.2|
0,3,9.8|
0,4,2.6|
1,0,1.2|
1,2,5.6|
1,3,9.9|
1,4,0.71|
2,0,0.13|
2,1,5.4|
2,3,10|
2,4,7.7|
3,0,4.1|
3,1,9.1|
3,2,7.9|
3,4,3.4|
4,0,9.9|
4,1,4.4|
4,2,1.9|
4,3,9.2|
];
constraint_x10_x9=[
0,1,9.7|
0,2,4.7|
0,3,2.7|
0,4,3.3|
1,0,9|
1,2,7.7|
1,3,8.6|
1,4,0.83|
2,0,8.3|
2,1,4.3|
2,3,7.3|
2,4,9.8|
3,0,6.2|
3,1,3.8|
3,2,2.2|
3,4,5.7|
4,0,7.8|
4,1,9.6|
4,2,1.3|
4,3,6.4|
];
constraint_x11_x3=[
0,1,4.9|
0,2,8.4|
0,3,5.7|
0,4,6.8|
1,0,0.41|
1,2,5.6|
1,3,5.5|
1,4,3.2|
2,0,3.7|
2,1,8.3|
2,3,5.4|
2,4,3.2|
3,0,9|
3,1,2.4|
3,2,6|
3,4,1.1|
4,0,7.5|
4,1,8.7|
4,2,8.1|
4,3,0.053|
];
constraint_x11_x8=[
0,1,7.1|
0,2,9.5|
0,3,5.9|
0,4,9.9|
1,0,1.5|
1,2,0.86|
1,3,8.7|
1,4,5.7|
2,0,1.4|
2,1,6.4|
2,3,8|
2,4,3.9|
3,0,3.1|
3,1,0.62|
3,2,6|
3,4,3.2|
4,0,8.1|
4,1,1|
4,2,9.1|
4,3,1|
];
constraint_x12_x1=[
0,1,8.5|
0,2,3.4|
0,3,6.1|
0,4,2.2|
1,0,7.3|
1,2,6|
1,3,1.6|
1,4,6.1|
2,0,8.1|
2,1,2.9|
2,3,9.6|
2,4,2.9|
3,0,6.3|
3,1,2.3|
3,2,9.4|
3,4,8.7|
4,0,9.2|
4,1,7.6|
4,2,0.036|
4,3,1.3|
];
constraint_x12_x2=[
0,1,3.8|
0,2,3.4|
0,3,5.1|
0,4,2.3|
1,0,6.2|
1,2,0.28|
1,3,2.5|
1,4,10|
2,0,7.9|
2,1,1.8|
2,3,4.3|
2,4,6.7|
3,0,6.2|
3,1,0.96|
3,2,0.038|
3,4,2.6|
4,0,6.9|
4,1,3.2|
4,2,5.1|
4,3,9.9|
];
constraint_x12_x4=[
0,1,9.3|
0,2,3.9|
0,3,9.5|
0,4,2.6|
1,0,0.44|
1,2,0.62|
1,3,2.5|
1,4,3.2|
2,0,3.9|
2,1,5.9|
2,3,3.8|
2,4,0.29|
3,0,4.1|
3,1,4.2|
3,2,1.6|
3,4,8.8|
4,0,8.8|
4,1,0.094|
4,2,4.9|
4,3,2|
];
constraint_x12_x5=[
0,1,0.21|
0,2,5.2|
0,3,9.5|
0,4,6.3|
1,0,4.7|
1,2,8.6|
1,3,6.8|
1,4,8.8|
2,0,4.2|
2,1,9.2|
2,3,7.4|
2,4,7.7|
3,0,5.4|
3,1,2.1|
3,2,2.4|
3,4,5.2|
4,0,7.6|
4,1,0.84|
4,2,3.8|
4,3,1.7|
];
constraint_x12_x8=[
0,1,9|
0,2,3.4|
0,3,4.2|
0,4,5.1|
1,0,3.2|
1,2,9.9|
1,3,5|
1,4,1.4|
2,0,6.3|
2,1,0.97|
2,3,9.5|
2,4,6.1|
3,0,8|
3,1,0.72|
3,2,8.8|
3,4,4.7|
4,0,1.4|
4,1,0.43|
4,2,4.6|
4,3,6.6|
];
constraint_x12_x9=[
0,1,6.9|
0,2,0.77|
0,3,4.7|
0,4,4.1|
1,0,4|
1,2,3.3|
1,3,8.2|
1,4,9.1|
2,0,6.9|
2,1,0.69|
2,3,3.7|
2,4,0.84|
3,0,0.15|
3,1,5.5|
3,2,0.46|
3,4,0.27|
4,0,8.1|
4,1,6.9|
4,2,4.8|
4,3,5.2|
];
constraint_x12_x10=[
0,1,5.2|
0,2,6.3|
0,3,6.5|
0,4,6.8|
1,0,8.6|
1,2,8.2|
1,3,9.1|
1,4,7.7|
2,0,9.4|
2,1,0.55|
2,3,1.6|
2,4,6.6|
3,0,0.075|
3,1,1.2|
3,2,7.4|
3,4,6.3|
4,0,2.6|
4,1,6.4|
4,2,0.4|
4,3,0.9|
];
constraint_x12_x11=[
0,1,3|
0,2,3.1|
0,3,6.1|
0,4,5.2|
1,0,7|
1,2,5.4|
1,3,1.5|
1,4,0.67|
2,0,2.4|
2,1,2.8|
2,3,7.1|
2,4,9.4|
3,0,5.3|
3,1,2.7|
3,2,3.6|
3,4,6.1|
4,0,4.9|
4,1,8.5|
4,2,9.3|
4,3,5.3|
];
constraint_x1_y1=[
0,0,6.7|
0,1,4.9|
0,2,6|
0,3,9.5|
0,4,6.8|
1,0,9|
1,1,8.2|
1,2,2.3|
1,3,3.9|
1,4,1.6|
2,0,9.6|
2,1,0.63|
2,2,5.7|
2,3,8.4|
2,4,6.3|
3,0,8.6|
3,1,9|
3,2,3.3|
3,3,9.3|
3,4,8.9|
4,0,8|
4,1,4.5|
4,2,2.8|
4,3,6|
4,4,5.1|
];
constraint_x2_y2=[
0,0,1.1|
0,1,3.1|
0,2,5.6|
0,3,6.3|
0,4,4.6|
1,0,5.9|
1,1,4.2|
1,2,4.5|
1,3,5.1|
1,4,7.1|
2,0,6.3|
2,1,7.7|
2,2,7.5|
2,3,0.73|
2,4,8.4|
3,0,9.3|
3,1,9.2|
3,2,0.13|
3,3,6.3|
3,4,8.7|
4,0,0.97|
4,1,0.63|
4,2,5.7|
4,3,6.8|
4,4,9|
];
constraint_x3_y3=[
0,0,7|
0,1,3.2|
0,2,3.2|
0,3,2.5|
0,4,3.3|
1,0,0.92|
1,1,6.3|
1,2,1.8|
1,3,4.2|
1,4,2.3|
2,0,1.6|
2,1,7.8|
2,2,6.9|
2,3,2.5|
2,4,9.6|
3,0,8.7|
3,1,5.7|
3,2,4.2|
3,3,7.8|
3,4,3.2|
4,0,9.4|
4,1,2|
4,2,0.74|
4,3,3.7|
4,4,6.3|
];
constraint_x4_y4=[
0,0,5|
0,1,6.3|
0,2,3.5|
0,3,9.6|
0,4,9.4|
1,0,3.1|
1,1,9.8|
1,2,7.3|
1,3,4.4|
1,4,5.8|
2,0,2.8|
2,1,6.4|
2,2,6.4|
2,3,2.9|
2,4,1.6|
3,0,4.7|
3,1,0.93|
3,2,0.26|
3,3,1.3|
3,4,4.1|
4,0,1.1|
4,1,8.3|
4,2,4.9|
4,3,3.8|
4,4,2.7|
];
constraint_x5_y5=[
0,0,2.9|
0,1,7.9|
0,2,7.2|
0,3,6.4|
0,4,0.8|
1,0,9.8|
1,1,6|
1,2,5.8|
1,3,6|
1,4,7.8|
2,0,6.4|
2,1,7|
2,2,9.9|
2,3,1.2|
2,4,4.9|
3,0,3.6|
3,1,0.011|
3,2,8.4|
3,3,7|
3,4,2.2|
4,0,0.12|
4,1,4.9|
4,2,0.5|
4,3,4.3|
4,4,1.8|
];
constraint_x6_y6=[
0,0,5.6|
0,1,0.94|
0,2,9.4|
0,3,9.9|
0,4,2.8|
1,0,8.1|
1,1,3.4|
1,2,1|
1,3,0.24|
1,4,2.3|
2,0,8.2|
2,1,5.1|
2,2,5.7|
2,3,7.3|
2,4,1|
3,0,6.4|
3,1,1.2|
3,2,5.9|
3,3,2.6|
3,4,1.7|
4,0,9.8|
4,1,7.1|
4,2,7.7|
4,3,1.7|
4,4,1.8|
];
initial_distribution_y1=[0.31,0.35,0.18,0.11,0.05];
initial_distribution_y2=[0.09,0.14,0.4,0.088,0.29];
initial_distribution_y3=[0.13,0.32,0.1,0.13,0.32];
initial_distribution_y4=[0.27,0.15,0.19,0.14,0.25];
initial_distribution_y5=[0.015,0.31,0.096,0.23,0.35];
initial_distribution_y6=[0.13,0.069,0.32,0.23,0.25];
transition_y1=[
0.13,0.027,0.3,0.23,0.31|
0.15,0.52,0.07,0.15,0.11|
0.26,0.18,0.39,0.062,0.12|
0.028,0.17,0.17,0.28,0.35|
0.32,0.19,0.14,0.26,0.1|
];
transition_y2=[
0.22,0.18,0.077,0.28,0.25|
0.24,0.19,0.11,0.17,0.28|
0.098,0.32,0.11,0.45,0.025|
0.41,0.39,0.02,0.11,0.078|
0.29,0.095,0.23,0.3,0.083|
];
transition_y3=[
0.4,0.024,0.4,0.15,0.028|
0.28,0.16,0.17,0.15,0.23|
0.28,0.1,0.25,0.32,0.047|
0.17,0.33,0.24,0.25,0.0057|
0.15,0.37,0.18,0.099,0.2|
];
transition_y4=[
0.43,0.086,0.38,0.047,0.063|
0.21,0.34,0.2,0.062,0.18|
0.16,0.04,0.3,0.11,0.39|
0.24,0.16,0.19,0.2,0.21|
0.26,0.15,0.012,0.21,0.36|
];
transition_y5=[
0.38,0.055,0.23,0.2,0.13|
0.29,0.17,0.13,0.17,0.23|
0.24,0.033,0.048,0.33,0.35|
0.42,0.23,0.25,0.013,0.09|
0.2,0.09,0.29,0.35,0.07|
];
transition_y6=[
0.35,0.17,0.14,0.18,0.16|
0.051,0.28,0.14,0.25,0.29|
0.36,0.24,0.23,0.14,0.022|
0.15,0.3,0.2,0.2,0.15|
0.072,0.19,0.35,0.33,0.058|
];
